(set-option :incremental false)
(set-logic ALL)
(declare-const BAV1 Bool)
(declare-const BAV2 Bool)
(declare-const BAV3 Bool)
(declare-const BAV4 Bool)
(declare-const BAV5 Bool)
(declare-const BAV6 Bool)
(declare-const BAV7 Bool)
(declare-const BAV8 Bool)
(declare-const BAV9 Bool)
(declare-const BAV10 Bool)
(declare-const BAV11 Bool)
(declare-const BAV12 Bool)
(declare-const BAV13 Bool)
(declare-const BAV14 Bool)
(declare-const BAV15 Bool)
(declare-const BAV16 Bool)
(declare-const BAV17 Bool)
(declare-const BAV18 Bool)
(declare-const BAV19 Bool)
(declare-const GEN15 Int)
(declare-const GEN14 Int)
(declare-const GEN13 Int)
(declare-const GEN12 Int)
(declare-const GEN11 Int)
(declare-const GEN10 Int)
(declare-const GEN9 Int)
(declare-const GEN8 Int)
(declare-const GEN7 Int)
(declare-const GEN6 Int)
(declare-const GEN5 Int)
(declare-const GEN4 Int)
(declare-const GEN3 Int)
(declare-const GEN2 Int)
(declare-const GEN1 Int)
(declare-fun fmt_length () Int)
(declare-fun fmt1 () Int)
(declare-fun arg1 () Int)
(declare-fun select_format (Int) Int)
(assert (= BAV1 (and (and (= GEN1 (select_format (+ GEN2 fmt1))) (= (select_format arg1) GEN3)) (and (or (= GEN4 (select_format GEN5)) (or (or (or (= GEN6 (select_format GEN7)) (= GEN8 (select_format GEN9))) (= GEN10 (select_format GEN11))) (= GEN12 (select_format GEN13)))) (and (= GEN14 fmt_length) (and (= arg1 (- fmt1 GEN15)) (< fmt1 fmt_length)))))))
(assert (= BAV2 (and (= GEN1 (select_format (+ GEN2 fmt1))) (= (select_format arg1) GEN3))))
(assert (= BAV3 (= GEN1 (select_format (+ GEN2 fmt1)))))
(assert (= BAV4 (= (select_format arg1) GEN3)))
(assert (= BAV5 (and (or (= GEN4 (select_format GEN5)) (or (or (or (= GEN6 (select_format GEN7)) (= GEN8 (select_format GEN9))) (= GEN10 (select_format GEN11))) (= GEN12 (select_format GEN13)))) (and (= GEN14 fmt_length) (and (= arg1 (- fmt1 GEN15)) (< fmt1 fmt_length))))))
(assert (= BAV6 (or (= GEN4 (select_format GEN5)) (or (or (or (= GEN6 (select_format GEN7)) (= GEN8 (select_format GEN9))) (= GEN10 (select_format GEN11))) (= GEN12 (select_format GEN13))))))
(assert (= BAV7 (= GEN4 (select_format GEN5))))
(assert (= BAV8 (or (or (or (= GEN6 (select_format GEN7)) (= GEN8 (select_format GEN9))) (= GEN10 (select_format GEN11))) (= GEN12 (select_format GEN13)))))
(assert (= BAV9 (or (or (= GEN6 (select_format GEN7)) (= GEN8 (select_format GEN9))) (= GEN10 (select_format GEN11)))))
(assert (= BAV10 (or (= GEN6 (select_format GEN7)) (= GEN8 (select_format GEN9)))))
(assert (= BAV11 (= GEN6 (select_format GEN7))))
(assert (= BAV12 (= GEN8 (select_format GEN9))))
(assert (= BAV13 (= GEN10 (select_format GEN11))))
(assert (= BAV14 (= GEN12 (select_format GEN13))))
(assert (= BAV15 (and (= GEN14 fmt_length) (and (= arg1 (- fmt1 GEN15)) (< fmt1 fmt_length)))))
(assert (= BAV16 (= GEN14 fmt_length)))
(assert (= BAV17 (and (= arg1 (- fmt1 GEN15)) (< fmt1 fmt_length))))
(assert (= BAV18 (= arg1 (- fmt1 GEN15))))
(assert (= BAV19 (< fmt1 fmt_length)))
(check-sat-assuming ((and (and (= GEN1 (select_format (+ GEN2 fmt1))) (= (select_format arg1) GEN3)) (and (or (= GEN4 (select_format GEN5)) (or (or (or (= GEN6 (select_format GEN7)) (= GEN8 (select_format GEN9))) (= GEN10 (select_format GEN11))) (= GEN12 (select_format GEN13)))) (and (= GEN14 fmt_length) (and (= arg1 (- fmt1 GEN15)) (< fmt1 fmt_length)))))))
(get-model)